100 8
794 366
259 845
441 474
283 229
157 717
162 265
515 388
224 742
130 191
215 702
210 229
424 148
254 752
921 173
421 84
536 504
578 607
94 595
918 828
204 775
473 204
127 288
713 622
342 696
770 219
689 665
358 680
621 500
176 587
648 606
134 688
252 777
326 808
355 531
253 138
593 718
696 595
210 765
382 61
297 518
335 505
601 581
786 686
888 173
179 80
194 794
795 807
490 706
384 497
232 661
407 105
247 751
331 605
222 706
244 173
264 272
556 616
593 397
156 771
327 183
253 375
152 146
372 287
958 690
240 685
790 189
212 218
480 156
203 253
884 686
340 762
257 633
817 343
434 185
523 210
551 689
574 686
290 867
472 92
274 162
958 694
163 190
253 802
916 730
557 605
217 470
845 235
145 139
954 742
518 688
308 495
836 808
65 648
689 671
698 674
210 840
472 614
648 481
174 686
296 282
